
(set-logic ALL) 

(declare-datatype MyList ((Nil) (Cons (head Real) (tail MyList)) )) 
(declare-fun l0 () MyList) 
(declare-fun l1 () MyList) 
(declare-fun l2 () MyList) 
(declare-fun l3 () MyList) 
(declare-fun i0 () Real) 
(declare-fun i1 () Real) 
(assert (= l2 Nil) )
(assert (is-Cons Nil) )
(assert (not (is-Cons Nil)) )
(assert (or (= l1 Nil) (is-Cons l2)) )
(assert (or (= l1 l2) (is-Nil Nil)) )
(assert (not (= l0 l2)) )
(assert (is-Cons Nil) )
(assert (not (is-Nil Nil)) )
(check-sat)
